unknown
(model
; cardinality of BoundSet is 1
(declare-sort BoundSet 0)
; rep: @uc_BoundSet_0
; cardinality of UnboundSet is 1
(declare-sort UnboundSet 0)
(declare-fun groundTerm_2 () UnboundSet)
(define-fun IsOutdoors ((BOUND_VARIABLE_391 BoundSet)) Bool true)
(define-fun IsHolding ((BOUND_VARIABLE_403 BoundSet) (BOUND_VARIABLE_404 BoundSet)) Bool false)
(define-fun IsSmall ((BOUND_VARIABLE_391 BoundSet)) Bool false)
(define-fun IsCrying ((BOUND_VARIABLE_391 BoundSet)) Bool false)
(define-fun IsWizard ((BOUND_VARIABLE_391 BoundSet)) Bool false)
)
sat
(model
; cardinality of BoundSet is 1
(declare-sort BoundSet 0)
; rep: @uc_BoundSet_0
; cardinality of UnboundSet is 1
(declare-sort UnboundSet 0)
(declare-fun groundTerm_4 () UnboundSet)
(define-fun IsOutdoors ((BOUND_VARIABLE_414 BoundSet)) Bool true)
(define-fun IsHolding ((BOUND_VARIABLE_422 BoundSet) (BOUND_VARIABLE_423 BoundSet)) Bool false)
(define-fun IsSmall ((BOUND_VARIABLE_414 BoundSet)) Bool false)
(define-fun IsCrying ((BOUND_VARIABLE_414 BoundSet)) Bool false)
(define-fun IsWizard ((BOUND_VARIABLE_414 BoundSet)) Bool false)
)
